1609561
66 11 13370
11 6 47990
6 60 15832
60 23 7498
23 49 4353
49 19 8895
19 5 15574
5 1 16009
1 54 18207
54 13 13536
13 47 9114
47 4 12782
4 20 4440
20 65 13332
65 45 16726
45 2 15587
2 48 7938
48 63 23516
63 16 14689
16 59 10880
59 28 24825
28 50 10810
50 36 24707
36 8 11459
8 15 6874
15 58 6904
58 9 1777
9 27 6468
27 17 1445
17 68 43285
68 35 19070
35 51 8926
51 39 11004
39 62 8740
62 37 30446
37 53 6554
53 44 84806
44 14 62420
14 10 62052
10 18 28652
18 57 27906
57 33 88918
33 52 101509
52 22 46274
22 31 39447
31 21 77515
21 3 17216
3 61 12947
61 24 5437
24 12 13443
12 42 4831
42 32 5759
32 56 1427
56 40 3489
40 29 9666
29 25 9940
25 30 1249
30 41 5056
41 64 28668
64 67 14572
67 38 15200
38 7 28523
7 43 52950
43 46 69394
46 34 36286
34 55 20835
55 26 61621
26 66 57991
